n_res = 4;
rc = [ 0, 0, 0, 0 ];
n_tasks = 30;
d = [ 6, 6, 8, 5, 8, 2, 5, 5, 6, 3, 6, 4, 5, 6, 6, 5, 4, 4, 7, 9, 8, 7, 2, 5, 5, 3, 4, 8, 7, 6 ];
rr = [| 0, 0, 0, 0, 0, 0, 0, 0, 0, 0, 0, 0, 0, 0, 0, 0, 0, 0, 0, 0, 0, 0, 0, 0, 0, 0, 0, 0, 0, 0
      | 0, 0, 0, 0, 0, 0, 0, 0, 0, 0, 0, 0, 0, 0, 0, 0, 0, 0, 0, 0, 0, 0, 0, 0, 0, 0, 0, 0, 0, 0
      | 0, 0, 0, 0, 0, 0, 0, 0, 0, 0, 0, 0, 0, 0, 0, 0, 0, 0, 0, 0, 0, 0, 0, 0, 0, 0, 0, 0, 0, 0
      | 0, 0, 0, 0, 0, 0, 0, 0, 0, 0, 0, 0, 0, 0, 0, 0, 0, 0, 0, 0, 0, 0, 0, 0, 0, 0, 0, 0, 0, 0 |];
suc = [ { 4 },
       { 10 },
       { 6, 7, 15 },
       { 5 },
       { 18 },
       { 8, 23, 27 },
       { 21, 24 },
       { 9, 11, 13 },
       { 12, 14, 16 },
       { 17, 28, 30 },
       { 16 },
       { 20, 24 },
       { 19, 25 },
       { 28 },
       { 21 },
       { 18 },
       { 22, 26 },
       { 20, 29 },
       { 20 },
       { 21 },
       { 28 },
       { 29 },
       { 26 },
       { 26 },
       { 30 },
       { 29 },
       { 30 },
       {  },
       {  },
       {  } ];
